r = [
0,37,39,68,49,72,37,68,45,19,69,0
];
p = [
0,30,24,15,11,17,12,8,10,15,5,0
];
e = [
0,11,12,5,11,3,11,5,4,14,5,0
];
d = [
0,67,73,158,142,164,128,189,111,124,139,196
];
d_bar = [
0,94,95,172,152,179,139,196,120,138,144,196
];
w = [
0,0.407407407,0.545454545,0.357142857,1.1,0.2,1,0.714285714,0.444444444,1,1,0
];
